NbMines = 5;
NbYears = 3;

Royalties = [5, 4, 4, 100, 1];
LimExtract = [2, 2.5, 2, 0, 1];
LimWork = 3;
OreQual = [1.0, 0.7, 1.5, 0.5, 1.0];
BlendQual = [0.9, 0.8, 1.2];
BlendPrice = 10;
DiscountFactor = [1.0, 0.9, 0.81]